0 73 64 17 14 51 54 53 52 72 41 40 71 39 38 42 1 23 24 27 18 19 20 21 22 58 37 29 30 31 28 57 49 45 46 48 47 74 59 60 62 61 50 55 6 7 9 8 36 35 34 3 33 32 43 56 25 44 2 70 69 26 67 68 12 13 10 11 4 15 5 16 65 66 63 0 